<number of tasks>
30

<cycle time>
30

<task times>
1 8
2 7
3 19
4 10
5 2
6 6
7 14
8 10
9 1
10 4
11 14
12 15
13 5
14 12
15 9
16 10
17 2
18 10
19 18
20 16
21 21
22 14
23 16
24 7
25 17
26 9
27 25
28 7
29 14
30 2

<precedence relations>
1,4
1,5
2,11
2,12
3,16
3,17
4,7
5,6
6,7
7,8
8,9
9,26
10,24
12,13
13,14
14,15
14,20
15,22
16,20
17,18
18,19
20,21
20,24
21,22
22,23
23,27
24,25
25,26
26,27
27,28
27,29
29,30

<setup times forward>
1,2:3
1,3:3
1,4:4
1,10:3
1,11:3
1,14:4
1,15:5
1,16:2
1,17:3
1,18:2
1,19:6
1,20:2
1,21:5
1,22:6
1,23:1
1,24:3
1,25:3
2,1:3
2,4:1
2,5:3
2,6:1
2,7:1
2,8:3
2,9:2
2,12:3
2,16:1
2,18:1
2,19:3
3,1:3
3,4:1
3,5:3
3,6:1
3,7:1
3,8:3
3,9:2
3,12:3
3,13:3
3,14:1
3,15:2
3,16:1
4,2:1
4,3:1
4,5:4
4,7:2
4,10:1
4,11:1
4,12:4
4,13:4
4,15:1
4,16:2
4,17:1
4,18:2
4,19:2
4,20:2
4,21:1
4,22:2
4,23:3
4,24:1
4,25:1
5,2:3
5,3:3
5,4:4
5,6:4
5,10:3
5,11:3
5,14:4
5,15:5
5,16:2
5,17:3
5,18:2
5,19:6
5,20:2
5,21:5
5,22:6
5,23:1
5,24:3
5,25:3
6,2:1
6,3:1
6,7:2
6,10:1
6,11:1
6,12:4
6,13:4
6,15:1
6,16:2
6,17:1
6,18:2
6,19:2
6,20:2
6,21:1
6,22:2
6,23:3
6,24:1
6,25:1
7,2:1
7,3:1
7,8:4
7,10:1
7,11:1
7,12:2
7,13:2
7,14:2
7,15:3
7,17:1
7,19:4
7,21:3
7,22:4
7,23:1
7,24:1
7,25:1
8,2:3
8,3:3
8,9:5
8,10:3
8,11:3
8,12:6
8,13:6
8,14:2
8,15:1
8,16:4
8,17:3
8,18:4
8,20:4
8,21:1
8,23:5
8,24:3
8,25:3
9,2:2
9,3:2
9,10:2
9,11:2
9,12:1
9,13:1
9,14:3
9,15:4
9,16:1
9,17:2
9,18:1
9,19:5
9,20:1
9,21:4
9,22:5
9,24:2
9,25:2
10,1:3
10,4:1
10,5:3
10,6:1
10,7:1
10,8:3
10,9:2
10,12:3
10,13:3
10,14:1
10,15:2
10,16:1
10,18:1
10,19:3
10,20:1
10,21:2
10,22:3
10,23:2
11,1:3
11,4:1
11,5:3
11,6:1
11,7:1
11,8:3
11,9:2
11,12:3
11,13:3
11,14:1
11,15:2
11,16:1
11,18:1
11,19:3
11,20:1
11,21:2
11,22:3
11,23:2
11,26:2
11,27:1
11,28:3
12,3:3
12,4:4
12,6:4
12,7:2
12,8:6
12,9:1
12,10:3
12,11:3
12,16:2
12,17:3
12,18:2
12,19:6
13,3:3
13,4:4
13,6:4
13,7:2
13,8:6
13,9:1
13,10:3
13,11:3
13,14:4
13,16:2
13,17:3
13,18:2
13,19:6
14,1:4
14,3:1
14,5:4
14,7:2
14,8:2
14,9:3
14,10:1
14,11:1
14,15:1
14,16:2
14,17:1
14,18:2
14,19:2
14,20:2
15,1:5
15,3:2
15,4:1
15,5:5
15,6:1
15,7:3
15,8:1
15,9:4
15,10:2
15,11:2
15,16:3
15,17:2
15,18:3
15,19:1
15,20:3
15,22:1
15,24:2
15,25:2
15,26:4
16,1:2
16,2:1
16,4:2
16,5:2
16,6:2
16,8:4
16,9:1
16,10:1
16,11:1
16,12:2
16,13:2
16,14:2
16,15:3
16,17:1
16,19:4
17,1:3
17,4:1
17,5:3
17,6:1
17,7:1
17,8:3
17,9:2
17,12:3
17,13:3
17,14:1
17,15:2
17,16:1
17,18:1
17,20:1
17,21:2
17,22:3
17,23:2
17,26:2
17,27:1
17,28:3
18,1:2
18,2:1
18,4:2
18,5:2
18,6:2
18,8:4
18,9:1
18,10:1
18,11:1
18,12:2
18,13:2
18,14:2
18,15:3
18,19:4
18,21:3
18,22:4
18,23:1
18,24:1
18,25:1
18,26:1
18,27:2
18,28:4
18,29:1
18,30:1
19,1:6
19,2:3
19,4:2
19,5:6
19,6:2
19,7:4
19,9:5
19,10:3
19,11:3
19,12:6
19,13:6
19,14:2
19,15:1
19,16:4
19,20:4
19,21:1
19,23:5
19,24:3
19,25:3
19,26:5
19,27:2
19,29:3
19,30:3
20,1:2
20,4:2
20,5:2
20,6:2
20,8:4
20,9:1
20,10:1
20,11:1
20,15:3
20,17:1
20,19:4
20,21:3
20,24:1
21,1:5
21,4:1
21,5:5
21,6:1
21,7:3
21,8:1
21,9:4
21,10:2
21,11:2
21,17:2
21,18:3
21,19:1
21,22:1
21,24:2
21,25:2
21,26:4
22,1:6
22,4:2
22,5:6
22,6:2
22,7:4
22,9:5
22,10:3
22,11:3
22,17:3
22,18:4
22,23:5
22,24:3
22,25:3
22,26:5
23,1:1
23,4:3
23,5:1
23,6:3
23,7:1
23,8:5
23,10:2
23,11:2
23,17:2
23,18:1
23,19:5
23,24:2
23,25:2
23,27:3
24,1:3
24,4:1
24,5:3
24,6:1
24,7:1
24,8:3
24,9:2
24,15:2
24,18:1
24,19:3
24,21:2
24,22:3
24,23:2
25,1:3
25,4:1
25,5:3
25,6:1
25,7:1
25,8:3
25,9:2
25,15:2
25,18:1
25,19:3
25,21:2
25,22:3
25,23:2
25,26:2
26,11:2
26,15:4
26,17:2
26,18:1
26,19:5
26,21:4
26,22:5
26,27:3
27,11:1
27,17:1
27,18:2
27,19:2
27,28:2
27,29:1
28,11:3
28,17:3
28,18:4
28,29:3
28,30:3
29,18:1
29,19:3
29,28:3
30,18:1
30,19:3
30,28:3

<setup times backward>
1,2:3
1,3:3
1,10:3
1,11:3
1,14:4
1,15:5
1,16:2
1,17:3
1,18:2
1,19:6
1,20:2
1,21:5
1,22:6
1,23:1
1,24:3
1,25:3
2,4:1
2,6:1
2,8:3
2,19:3
3,4:1
3,6:1
3,8:3
3,14:1
3,15:2
4,15:1
4,19:2
4,21:1
4,22:2
5,2:3
5,3:3
5,4:4
5,10:3
5,11:3
5,14:4
5,15:5
5,16:2
5,17:3
5,18:2
5,19:6
5,20:2
5,21:5
5,22:6
5,23:1
5,24:3
5,25:3
6,15:1
6,19:2
6,21:1
6,22:2
7,2:1
7,3:1
7,4:2
7,6:2
7,10:1
7,11:1
7,14:2
7,15:3
7,17:1
7,19:4
7,21:3
7,22:4
7,24:1
7,25:1
9,2:2
9,3:2
9,4:3
9,6:3
9,7:1
9,8:5
9,10:2
9,11:2
9,14:3
9,15:4
9,16:1
9,17:2
9,18:1
9,19:5
9,20:1
9,21:4
9,22:5
9,24:2
9,25:2
10,4:1
10,6:1
10,8:3
10,14:1
10,15:2
10,19:3
10,21:2
10,22:3
11,4:1
11,6:1
11,8:3
11,14:1
11,15:2
11,19:3
11,21:2
11,22:3
11,27:1
11,28:3
12,2:3
12,3:3
12,4:4
12,6:4
12,7:2
12,8:6
12,9:1
12,10:3
12,11:3
12,16:2
12,17:3
12,18:2
12,19:6
13,2:3
13,3:3
13,4:4
13,6:4
13,7:2
13,8:6
13,9:1
13,10:3
13,11:3
13,16:2
13,17:3
13,18:2
13,19:6
14,8:2
14,19:2
15,8:1
15,19:1
16,2:1
16,3:1
16,4:2
16,6:2
16,8:4
16,10:1
16,11:1
16,14:2
16,15:3
16,17:1
16,19:4
17,4:1
17,6:1
17,8:3
17,14:1
17,15:2
17,21:2
17,22:3
17,27:1
17,28:3
18,2:1
18,3:1
18,4:2
18,6:2
18,8:4
18,10:1
18,11:1
18,14:2
18,15:3
18,17:1
18,21:3
18,22:4
18,24:1
18,25:1
18,27:2
18,28:4
18,29:1
18,30:1
20,2:1
20,3:1
20,4:2
20,6:2
20,8:4
20,10:1
20,11:1
20,14:2
20,15:3
20,17:1
20,19:4
21,8:1
21,19:1
23,2:2
23,3:2
23,4:3
23,6:3
23,7:1
23,8:5
23,10:2
23,11:2
23,14:3
23,15:4
23,16:1
23,17:2
23,18:1
23,19:5
23,20:1
23,21:4
23,22:5
23,24:2
23,25:2
24,4:1
24,6:1
24,8:3
24,14:1
24,15:2
24,19:3
24,21:2
24,22:3
25,4:1
25,6:1
25,8:3
25,14:1
25,15:2
25,19:3
25,21:2
25,22:3
26,2:2
26,3:2
26,4:3
26,6:3
26,7:1
26,8:5
26,10:2
26,11:2
26,14:3
26,15:4
26,16:1
26,17:2
26,18:1
26,19:5
26,20:1
26,21:4
26,22:5
26,24:2
26,25:2
27,8:2
27,15:1
27,19:2
27,21:1
27,22:2
29,4:1
29,6:1
29,8:3
29,14:1
29,15:2
29,19:3
29,21:2
29,22:3
29,27:1
29,28:3
30,4:1
30,6:1
30,8:3
30,14:1
30,15:2
30,19:3
30,21:2
30,22:3
30,27:1
30,28:3

<end>

<optimal SALBP-1 value>
12


<rand seed>
467321153

